
Gurobi 10.0.0 (linux64) logging started Wed Nov 16 07:40:17 2022

Set parameter LogFile to value "../results/k03_n150_d100/k03_n160_d100_i160-023_A-MILO_log.txt"
Gurobi Optimizer version 10.0.0 build v10.0.0rc2 (linux64)

CPU model: Intel(R) Xeon(R) CPU E5-2630 v4 @ 2.20GHz, instruction set [SSE2|AVX|AVX2]
Thread count: 20 physical cores, 40 logical processors, using up to 10 threads

Optimize a model with 114640 rows, 13200 columns and 343920 nonzeros
Model fingerprint: 0x3937714e
Coefficient statistics:
  Matrix range     [1e+00, 1e+00]
  Objective range  [8e+01, 3e+02]
  Bounds range     [1e+00, 1e+00]
  RHS range        [1e+00, 2e+00]
Presolve removed 1114 rows and 162 columns
Presolve time: 0.66s
Presolved: 13038 rows, 126882 columns, 353934 nonzeros

Concurrent LP optimizer: primal simplex, dual simplex, and barrier
Showing barrier log only...

Ordering time: 0.05s

Barrier statistics:
 Free vars  : 159
 AA' NZ     : 1.135e+05
 Factor NZ  : 2.019e+05 (roughly 60 MB of memory)
 Factor Ops : 3.691e+07 (less than 1 second per iteration)
 Threads    : 8

                  Objective                Residual
Iter       Primal          Dual         Primal    Dual     Compl     Time
   0   1.38091470e+07  3.23120000e+04  3.39e+02 1.00e+00  1.82e+02     1s
   1   4.00051717e+06  7.86697114e+05  0.00e+00 1.07e-02  2.31e+01     1s
   2   1.64142906e+06  1.15645892e+06  0.00e+00 1.18e-03  3.47e+00     1s
   3   1.40694370e+06  1.36152999e+06  0.00e+00 1.85e-05  3.25e-01     1s
   4   1.37834436e+06  1.36717089e+06  0.00e+00 5.55e-06  7.99e-02     1s
   5   1.37659127e+06  1.37608644e+06  0.00e+00 6.28e-08  3.61e-03     1s
   6   1.37623008e+06  1.37622995e+06  0.00e+00 6.44e-11  9.39e-07     1s
   7   1.37623000e+06  1.37623000e+06  1.32e-13 2.05e-10  1.99e-12     1s

Barrier solved model in 7 iterations and 1.49 seconds (0.77 work units)
Optimal objective 1.37623000e+06

Crossover log...

       0 DPushes remaining with DInf 0.0000000e+00                 2s

   24963 PPushes remaining with PInf 0.0000000e+00                 2s
       0 PPushes remaining with PInf 0.0000000e+00                 2s

  Push phase complete: Pinf 0.0000000e+00, Dinf 0.0000000e+00      2s


Solved with barrier
Extra simplex iterations after uncrush: 2
Iteration    Objective       Primal Inf.    Dual Inf.      Time
   24968    1.3762300e+06   0.000000e+00   0.000000e+00      2s

Solved in 24968 iterations and 1.85 seconds (0.91 work units)
Optimal objective  1.376230000e+06
